\ This file has been generated by DOcplex
\ ENCODING=ISO-8859-1
\Problem name: random_problem.lp

Minimize
 obj: 0.001512101976 x0 + 0.000756050988 x1 + 0.000378025494 x2
      - 0.008891669846 x3 - 0.004445834923 x4 - 0.002222917462 x5 + [
      0.019993436834 x0^2 + 0.019993436834 x0*x1 + 0.009996718417 x0*x2
      - 0.002955407484 x0*x3 - 0.001477703742 x0*x4 - 0.000738851871 x0*x5
      + 0.004998359209 x1^2 + 0.004998359209 x1*x2 - 0.001477703742 x1*x3
      - 0.000738851871 x1*x4 - 0.000369425936 x1*x5 + 0.001249589802 x2^2
      - 0.000738851871 x2*x3 - 0.000369425936 x2*x4 - 0.000184712968 x2*x5
      + 0.009544825123 x3^2 + 0.009544825123 x3*x4 + 0.004772412562 x3*x5
      + 0.002386206281 x4^2 + 0.002386206281 x4*x5 + 0.000596551570 x5^2 ]/2
Subject To
 c0: 4 x0 + 2 x1 + x2 + 4 x3 + 2 x4 + x5 = 7

Bounds
 0 <= x0 <= 1
 0 <= x1 <= 1
 0 <= x2 <= 1
 0 <= x3 <= 1
 0 <= x4 <= 1
 0 <= x5 <= 1

Binaries
 x0 x1 x2 x3 x4 x5
End
